002 002 002 003 003 002 002 002 003 004 005 005 005 007 007 008 007 009 012 007 008 007 010 009 008 009 014 012 012 017 012
002 002 003 002 002 002 002 002 002 004 006 007 010 010 012 008 013 008 008 007 009 010 015 012 007 011 010 010 010 018 014
002 001 002 002 002 001 001 002 004 004 004 005 004 006 010 008 010 009 015 010 009 010 014 010 008 010 012 015 012 014 018
002 002 002 001 001 002 001 002 004 003 005 003 004 006 009 007 005 009 012 010 011 013 014 016 015 012 009 012 013 017 016
002 002 002 001 001 001 001 004 003 002 002 002 003 006 006 007 003 007 008 013 011 017 015 020 012 018 008 009 010 019 019
001 002 001 001 001 001 001 001 002 001 001 001 002 007 008 005 004 006 009 009 011 010 015 018 017 017 011 012 011 018 015
002 003 002 001 002 002 001 001 001 001 001 001 001 006 010 006 004 004 005 006 010 016 012 018 016 018 009 010 013 015 016
002 002 001 001 002 002 001 001 001 001 000 001 001 003 007 006 004 003 005 008 008 009 008 015 016 028 012 015 016 017 015
002 002 001 002 002 003 002 001 001 001 000 001 001 001 006 004 004 003 002 005 008 010 015 014 018 023 016 013 013 016 015
002 001 002 003 002 005 002 001 001 000 001 001 001 001 003 004 005 003 004 004 007 008 006 011 020 017 016 015 010 015 021
002 002 002 003 006 006 002 001 001 001 000 001 001 002 002 003 005 004 004 003 005 007 007 010 018 017 010 015 006 008 018
002 002 002 002 005 004 002 001 001 001 001 002 002 002 002 004 003 004 005 005 004 006 006 005 009 005 003 003 004 006 013
002 001 001 002 002 002 001 001 001 001 001 002 003 003 003 004 003 003 003 002 003 003 005 004 004 005 006 004 005 010 011
001 002 001 003 003 003 002 002 003 002 002 001 003 003 002 004 004 004 003 003 003 003 005 004 004 006 005 010 006 014 010
001 001 004 002 006 003 002 005 005 003 002 004 003 002 001 003 005 004 002 001 002 003 005 003 006 011 007 013 015 012 026
002 001 004 003 006 004 004 008 007 003 003 005 003 002 001 002 004 003 004 003 004 004 005 003 015 013 008 010 008 008 019
002 003 009 004 005 005 005 006 009 005 003 005 004 002 001 001 003 002 003 006 016 004 004 003 009 013 007 005 008 006 009
001 001 009 010 009 007 004 004 005 004 004 004 004 003 002 001 002 002 004 016 044 014 007 005 007 011 006 005 006 005 008
001 004 007 011 009 005 005 005 005 006 005 005 003 003 003 002 003 006 008 011 043 014 008 010 005 008 006 007 006 013 013
001 003 009 008 012 015 007 007 009 011 013 007 008 005 005 004 005 019 013 010 022 009 006 011 006 005 005 009 007 023 021
002 006 004 009 012 019 010 013 014 017 024 008 007 009 005 005 006 006 015 006 015 007 003 003 003 005 004 007 008 029 039
005 005 002 005 006 010 013 012 017 022 018 007 006 010 005 004 008 009 013 005 010 005 003 004 004 005 004 007 007 030 033
006 006 003 002 003 006 010 010 013 014 010 006 003 007 006 005 008 016 013 005 005 004 004 005 004 004 005 006 006 024 023
006 004 004 005 005 008 009 010 010 007 006 005 003 004 004 009 011 021 015 008 006 006 004 007 009 006 009 -99 -99 015 018
006 003 003 007 012 007 004 004 009 007 003 003 002 003 006 008 019 030 020 012 010 006 003 014 026 013 015 -99 -99 006 007
003 001 001 008 016 006 003 005 009 007 005 005 004 003 013 011 021 039 025 014 010 004 005 022 039 022 021 017 -99 002 002
001 001 001 006 009 003 003 005 007 007 005 007 006 002 004 004 012 035 020 019 009 005 007 029 028 024 021 015 007 002 001
001 000 001 005 010 012 004 004 006 005 007 010 005 006 005 007 016 018 014 021 012 005 011 019 019 032 016 010 006 002 003
001 000 000 002 006 005 002 005 004 004 005 011 009 004 006 005 007 010 014 030 035 015 016 030 035 032 017 013 006 003 004
001 000 000 001 002 001 001 001 002 001 003 008 005 007 009 004 004 006 010 024 030 019 018 017 021 032 030 023 007 004 003
002 000 001 001 001 001 000 000 000 001 001 002 002 007 008 005 003 004 007 010 019 016 015 013 016 034 043 033 008 006 004
003 001 001 001 001 004 001 000 000 000 000 000 001 008 009 007 004 005 004 006 006 005 005 007 016 044 052 042 012 010 005
003 004 004 001 000 001 000 000 000 000 000 000 000 002 007 007 010 006 003 005 003 004 003 005 013 052 040 046 026 013 007
005 010 006 002 001 001 000 000 000 000 000 000 000 003 011 017 011 006 002 002 002 002 002 003 009 034 039 029 032 017 012
004 005 006 003 003 001 000 000 000 000 000 001 000 005 005 005 007 003 002 001 001 001 001 001 009 027 022 019 039 022 017
003 004 005 005 004 004 001 000 000 000 000 000 000 001 005 002 001 001 001 000 000 001 000 003 014 014 009 010 015 018 007
003 002 004 003 003 003 001 001 000 000 000 000 000 000 000 000 000 000 000 000 001 002 001 002 008 005 007 008 007 006 003
001 001 002 003 002 002 001 000 000 000 000 000 000 000 000 000 000 000 000 000 003 005 005 004 003 007 010 011 003 002 004
000 000 001 001 001 000 000 000 000 000 000 000 000 000 000 000 000 000 000 000 005 008 006 005 003 010 013 008 001 002 008
000 000 000 000 000 000 000 000 000 000 000 000 000 000 000 000 000 000 000 000 004 019 006 005 007 019 004 004 001 004 018
000 000 000 000 000 000 000 000 000 000 000 000 000 000 000 000 000 000 000 000 012 007 006 008 014 024 007 005 001 008 017
000 000 000 000 000 000 000 001 000 000 000 000 000 000 000 000 000 000 000 001 008 003 014 015 017 025 016 009 003 007 017
000 000 000 000 000 000 000 000 000 000 000 000 000 000 000 000 000 000 000 000 000 007 025 013 015 039 031 015 003 002 007
000 000 000 000 000 000 000 000 000 000 000 000 000 000 000 000 000 000 000 000 001 007 008 008 012 053 037 006 003 003 002
000 000 000 -99 000 000 000 000 001 000 000 000 000 000 000 000 000 000 000 000 001 005 005 003 014 037 015 007 003 003 002
000 000 000 -99 000 000 000 000 001 001 000 001 000 000 000 000 000 000 003 001 002 003 001 002 012 018 011 010 005 003 001
000 000 000 -99 -99 000 000 000 002 001 001 001 000 000 000 000 000 000 005 002 001 001 000 002 005 006 009 008 004 003 001
000 000 000 -99 -99 000 000 000 001 001 000 000 000 001 000 000 000 001 008 007 010 002 000 003 002 004 005 005 002 002 000
000 000 000 -99 -99 000 001 001 001 002 001 001 004 001 001 000 000 001 004 013 017 003 001 001 000 002 002 003 001 000 000
000 000 000 -99 001 001 001 001 005 003 002 005 006 002 001 001 000 001 006 020 010 001 000 000 001 000 000 001 000 000 000
000 000 000 000 000 001 000 001 004 004 006 006 005 004 005 002 001 001 002 007 002 000 000 000 001 000 000 000 000 000 000
000 000 000 000 000 000 000 000 001 002 003 002 003 005 004 003 002 001 000 000 000 000 000 000 000 000 000 000 -99 -99 -99
000 000 000 000 000 000 000 000 000 000 001 001 002 004 006 004 008 005 003 000 000 000 000 000 000 -99 -99 -99 -99 -99 -99
000 000 000 000 000 001 001 001 000 000 000 000 001 002 002 006 022 008 004 001 000 000 000 000 -99 -99 -99 -99 -99 000 001
000 000 000 000 001 002 002 001 000 000 000 000 001 002 001 005 013 015 008 002 001 001 000 000 -99 000 000 -99 -99 000 001
